711743
711743
711743
711743
711743
711743
698007
698007
698007
698007
698007
697762
696402
692007
686867
686867
684778
684518
678460
673264
673264
673264
673264
672422
667038
667038
666427
666427
666427
660850
657954
657954
649904
649904
649904
649904
649904
645431
645431
645431
645431
645431
645431
645146
639994
638750
638750
638290
638290
632671
632671
626046
626046
626046
626046
626046
626046
621014
621014
621014
621014
614079
614079
614079
614079
614079
614079
614079
610518
610518
610518
610518
610518
608448
608448
608448
602814
602814
602814
602814
602443
601145
601145
601145
601145
598583
598583
598286
597963
597963
597963
597963
597963
589134
589134
589134
589134
589134
589134
584904
